
  22   10
  10   10   10   10   10   10   10   10   10   10

   0   0   0   0   0   0   0   0   0   0   0   2 2 8 
   7  10  10  10  10  10  10  10  10  10  10   1 3 
   3  10  10  10  10  10  10  10  10  10  10   1 4 
   3  10  10  10  10  10  10  10  10  10  10   1 5 
   3  10  10  10  10  10  10  10  10  10  10   1 6 
   8  10  10  10  10  10  10  10  10  10  10   1 7 
   2  10  10  10  10  10  10  10  10  10  10   3 21 16 9 
   8  10  10  10  10  10  10  10  10  10  10   3 21 16 11 
   1  10  10  10  10  10  10  10  10  10  10   2 20 10 
   7  10  10  10  10  10  10  10  10  10  10   1 11 
   1  10  10  10  10  10  10  10  10  10  10   1 12 
  10  10  10  10  10  10  10  10  10  10  10   3 19 18 13 
   1  10  10  10  10  10  10  10  10  10  10   1 14 
   3  10  10  10  10  10  10  10  10  10  10   1 15 
   7  10  10  10  10  10  10  10  10  10  10   1 17 
   1  10  10  10  10  10  10  10  10  10  10   1 20 
   8  10  10  10  10  10  10  10  10  10  10   1 22
   1  10  10  10  10  10  10  10  10  10  10   1 22
   8  10  10  10  10  10  10  10  10  10  10   1 22
   9  10  10  10  10  10  10  10  10  10  10   1 22
   7  10  10  10  10  10  10  10  10  10  10   1 22
   0   0   0   0   0   0   0   0   0   0   0   0 
